40
3 0 1
3 2 5
4 3 7
5 0 7
5 2 5
6 0 5
6 1 6
6 2 3
6 5 6
7 1 10
7 3 4
7 5 1
7 6 7
8 2 9
8 7 2
9 0 8
9 4 5
9 6 7
10 0 2
10 3 3
10 4 4
10 5 3
10 6 8
10 7 7
10 9 5
11 1 10
11 3 5
11 7 5
11 10 9
12 3 4
12 4 1
12 6 1
12 10 4
12 11 4
13 0 9
13 4 3
13 5 1
13 6 4
13 8 6
13 11 1
14 2 6
14 6 5
14 7 8
14 9 6
14 11 1
15 1 5
15 2 1
15 5 8
15 8 2
15 9 5
15 10 9
15 12 8
15 13 4
15 14 6
16 1 3
16 3 7
16 5 2
16 6 2
16 8 5
16 9 10
16 14 8
17 2 7
17 3 5
17 6 9
17 8 2
17 11 9
17 15 9
18 3 6
18 4 5
18 5 9
18 6 10
18 7 6
18 9 10
18 12 5
18 14 2
18 16 4
19 0 3
19 2 5
19 12 2
19 14 7
19 16 6
19 18 1
20 1 1
20 5 3
20 6 4
20 10 8
20 12 3
20 19 6
21 0 5
21 2 4
21 3 5
21 4 10
21 6 6
21 13 2
22 1 1
22 2 10
22 3 9
22 5 1
22 7 7
22 9 1
22 14 10
22 15 6
22 18 7
22 20 9
23 0 7
23 7 10
23 8 8
23 9 1
23 10 6
23 11 3
23 13 4
23 15 3
23 19 3
23 21 7
24 0 5
24 2 4
24 3 4
24 6 10
24 7 7
24 12 6
24 13 7
24 15 2
24 16 3
24 17 6
24 18 8
24 20 1
24 21 3
24 23 9
25 2 7
25 10 9
25 15 9
25 18 3
25 20 9
25 22 7
26 3 1
26 11 4
26 13 10
26 15 3
26 16 7
26 24 5
27 0 6
27 1 7
27 5 1
27 6 5
27 8 4
27 9 1
27 13 3
27 14 10
27 15 5
27 18 2
27 20 2
27 22 3
27 25 3
27 26 4
28 0 3
28 5 7
28 6 2
28 7 3
28 11 7
28 12 5
28 14 5
28 16 8
28 19 2
28 24 6
28 26 1
29 0 9
29 3 9
29 8 6
29 11 5
29 13 10
29 18 3
29 20 8
29 21 7
29 24 6
29 25 2
29 26 1
29 28 6
30 2 5
30 4 3
30 5 9
30 7 8
30 9 1
30 11 2
30 12 8
30 15 3
30 19 5
30 23 1
30 24 5
30 26 2
30 27 1
30 28 2
31 1 8
31 2 1
31 5 3
31 6 8
31 8 5
31 10 7
31 11 3
31 13 9
31 15 10
31 16 2
31 17 8
31 18 3
31 26 7
31 27 8
31 30 1
32 0 10
32 2 10
32 3 4
32 4 5
32 8 1
32 9 8
32 10 9
32 11 9
32 13 4
32 17 4
32 22 5
32 31 2
33 0 9
33 1 9
33 2 7
33 7 9
33 10 2
33 11 2
33 12 10
33 13 3
33 15 7
33 16 9
33 18 6
33 19 6
33 21 5
33 23 1
34 6 9
34 7 6
34 15 3
34 16 8
34 17 3
34 18 2
34 20 4
34 21 3
34 25 9
34 29 1
34 30 2
34 31 4
34 33 10
35 2 4
35 6 6
35 8 5
35 9 7
35 10 4
35 12 3
35 20 2
35 21 1
35 22 4
35 25 8
35 26 8
35 27 6
35 30 10
35 34 3
36 0 4
36 1 9
36 2 4
36 8 10
36 11 7
36 12 7
36 14 8
36 19 9
36 20 7
36 24 9
36 30 7
36 31 4
36 34 6
37 4 5
37 5 6
37 6 8
37 7 2
37 9 4
37 10 2
37 14 10
37 15 7
37 18 4
37 20 10
37 21 9
37 23 8
37 24 3
37 26 7
37 27 4
37 29 9
37 30 9
37 33 8
37 34 9
37 35 5
37 36 5
38 2 6
38 5 1
38 7 1
38 12 3
38 14 10
38 16 2
38 19 7
38 21 8
38 22 2
38 24 10
38 27 9
38 28 2
38 30 6
38 33 8
38 37 1
39 1 3
39 4 5
39 5 8
39 6 8
39 9 3
39 14 4
39 17 7
39 18 9
39 20 4
39 21 5
39 22 1
39 26 3
39 28 4
39 31 1
39 33 7
